
Welcome to IBM(R) ILOG(R) CPLEX(R) Interactive Optimizer 22.1.1.0
  with Simplex, Mixed Integer & Barrier Optimizers
5725-A06 5725-A29 5724-Y48 5724-Y49 5724-Y54 5724-Y55 5655-Y21
Copyright IBM Corp. 1988, 2022.  All Rights Reserved.

Type 'help' for a list of available commands.
Type 'help' followed by a command name for more
information on commands.

CPLEX> Selected objective sense:  MINIMIZE
Selected objective  name:  00000000
Selected RHS        name:  RHS1
Selected bound      name:  BOUND
Problem 'ee.mps' read.
Read time = 0.02 sec. (3.14 ticks)
CPLEX> New value for time limit in seconds: 7200
CPLEX> New value for parallel optimization mode: -1
CPLEX> New value for default parallel thread count: 40
CPLEX> New value for mixed integer optimality gap tolerance: 1e-13
CPLEX> Version identifier: 22.1.1.0 | 2022-11-28 | 9160aff4d
CPXPARAM_Threads                                 40
CPXPARAM_Parallel                                -1
CPXPARAM_TimeLimit                               7200
CPXPARAM_MIP_Tolerances_MIPGap                   1e-13
Found incumbent of value 0.000000 after 0.00 sec. (0.31 ticks)
Tried aggregator 2 times.
MIP Presolve eliminated 274 rows and 3331 columns.
MIP Presolve modified 5877 coefficients.
Aggregator did 873 substitutions.
Reduced MIP has 3370 rows, 6965 columns, and 25886 nonzeros.
Reduced MIP has 6965 binaries, 0 generals, 0 SOSs, and 0 indicators.
Presolve time = 0.07 sec. (69.99 ticks)
Probing fixed 24 vars, tightened 0 bounds.
Probing time = 0.06 sec. (28.79 ticks)
Tried aggregator 2 times.
Detecting symmetries...
MIP Presolve eliminated 26 rows and 44 columns.
Aggregator did 4 substitutions.
Reduced MIP has 3340 rows, 6911 columns, and 25712 nonzeros.
Reduced MIP has 6911 binaries, 0 generals, 0 SOSs, and 0 indicators.
Presolve time = 0.04 sec. (46.57 ticks)
Probing time = 0.02 sec. (5.04 ticks)
Clique table members: 16581.
MIP emphasis: balance optimality and feasibility.
MIP search method: dynamic search.
Parallel mode: opportunistic, using up to 40 threads.
Root relaxation solution time = 0.08 sec. (60.67 ticks)

        Nodes                                         Cuts/
   Node  Left     Objective  IInf  Best Integer    Best Bound    ItCnt     Gap

*     0+    0                            0.0000  -1.31000e+13              --- 
*     0+    0                      -5.39000e+12  -1.31000e+13           143.04%
      0     0  -1.30900e+13    96  -5.39000e+12  -1.30900e+13     1739  142.86%
*     0+    0                      -1.30900e+13  -1.30900e+13             0.00%
      0     0  -1.30900e+13   109  -1.30900e+13      Cuts: 66     2923    0.00%
*     0+    0                      -1.30900e+13  -1.30900e+13             0.00%
      0     0  -1.30900e+13    91  -1.30900e+13      Cuts: 68     3497    0.00%
      0     0  -1.30900e+13   141  -1.30900e+13      Cuts: 54     3656    0.00%

Repeating presolve.
Tried aggregator 2 times.
MIP Presolve eliminated 829 rows and 2119 columns.
MIP Presolve modified 16 coefficients.
Aggregator did 98 substitutions.
Reduced MIP has 2413 rows, 4688 columns, and 17085 nonzeros.
Reduced MIP has 4688 binaries, 0 generals, 0 SOSs, and 0 indicators.
Presolve time = 0.04 sec. (35.20 ticks)
Probing time = 0.03 sec. (7.53 ticks)
Tried aggregator 1 time.
Detecting symmetries...
MIP Presolve eliminated 4 rows and 6 columns.
MIP Presolve modified 2 coefficients.
Reduced MIP has 2409 rows, 4682 columns, and 17059 nonzeros.
Reduced MIP has 4682 binaries, 0 generals, 0 SOSs, and 0 indicators.
Presolve time = 0.03 sec. (26.88 ticks)
Represolve time = 0.13 sec. (84.47 ticks)
Probing time = 0.03 sec. (7.40 ticks)
Clique table members: 11155.
MIP emphasis: balance optimality and feasibility.
MIP search method: dynamic search.
Parallel mode: opportunistic, using up to 40 threads.
Root relaxation solution time = 0.09 sec. (68.21 ticks)

        Nodes                                         Cuts/
   Node  Left     Objective  IInf  Best Integer    Best Bound    ItCnt     Gap

*     0+    0                      -1.30900e+13  -1.30900e+13             0.00%
      0     0  -1.30900e+13   103  -1.30900e+13  -1.30900e+13     5862    0.00%
      0     0  -1.30900e+13   104  -1.30900e+13      Cuts: 75     6150    0.00%
      0     0  -1.30900e+13   149  -1.30900e+13      Cuts: 48     6374    0.00%
      0     2  -1.30900e+13   138  -1.30900e+13  -1.30900e+13     6374    0.00%
Elapsed time = 2.45 sec. (1632.31 ticks, tree = 0.02 MB, solutions = 4)
    446    71        cutoff        -1.30900e+13  -1.30900e+13    57130    0.00%
   1774    55        cutoff        -1.30900e+13  -1.30900e+13    40195    0.00%
   3398    58        cutoff        -1.30900e+13  -1.30900e+13    75292    0.00%
   4958    67        cutoff        -1.30900e+13  -1.30900e+13   118185    0.00%
   6263   606  -1.30900e+13    58  -1.30900e+13  -1.30900e+13   242266    0.00%
   7488   667  -1.30900e+13   129  -1.30900e+13  -1.30900e+13   254864    0.00%
   8724   828  -1.30900e+13   202  -1.30900e+13  -1.30900e+13   314828    0.00%
   9855   745  -1.30900e+13    53  -1.30900e+13  -1.30900e+13   283621    0.00%
  10804   704        cutoff        -1.30900e+13  -1.30900e+13   441778    0.00%

Performing restart 1

Repeating presolve.
Tried aggregator 2 times.
MIP Presolve eliminated 87 rows and 125 columns.
MIP Presolve modified 1045 coefficients.
Aggregator did 20 substitutions.
Reduced MIP has 2294 rows, 4533 columns, and 16326 nonzeros.
Reduced MIP has 4533 binaries, 0 generals, 0 SOSs, and 0 indicators.
Presolve time = 0.03 sec. (31.57 ticks)
Tried aggregator 2 times.
MIP Presolve eliminated 23 rows and 61 columns.
Aggregator did 16 substitutions.
Reduced MIP has 2255 rows, 4454 columns, and 16007 nonzeros.
Reduced MIP has 4454 binaries, 0 generals, 0 SOSs, and 0 indicators.
Presolve time = 0.02 sec. (13.98 ticks)
Tried aggregator 1 time.
Reduced MIP has 2255 rows, 4454 columns, and 16007 nonzeros.
Reduced MIP has 4454 binaries, 0 generals, 0 SOSs, and 0 indicators.
Presolve time = 0.03 sec. (15.73 ticks)
Represolve time = 0.23 sec. (125.15 ticks)
  11815     0  -1.30900e+13   154  -1.30900e+13      Cuts: 23   476649    0.00%
  11815     0  -1.30900e+13   251  -1.30900e+13      Cuts: 27   476852    0.00%
  11815     0  -1.30900e+13   264  -1.30900e+13      Cuts: 30   477054    0.00%
  11815     0  -1.30900e+13   256  -1.30900e+13      Cuts: 40   477165    0.00%
  11815     0  -1.30900e+13   277  -1.30900e+13      Cuts: 17   477294    0.00%
  11815     0  -1.30900e+13   273  -1.30900e+13      Cuts: 19   477505    0.00%
  11815     0  -1.30900e+13   210  -1.30900e+13      Cuts: 24   477673    0.00%
  11815     0  -1.30900e+13   274  -1.30900e+13      Cuts: 41   477884    0.00%

Repeating presolve.
Tried aggregator 2 times.
MIP Presolve eliminated 1630 rows and 3137 columns.
MIP Presolve modified 172 coefficients.
Aggregator did 212 substitutions.
Reduced MIP has 402 rows, 1080 columns, and 3462 nonzeros.
Reduced MIP has 1080 binaries, 0 generals, 0 SOSs, and 0 indicators.
Presolve time = 0.01 sec. (11.71 ticks)
Tried aggregator 1 time.
Reduced MIP has 402 rows, 1080 columns, and 3462 nonzeros.
Reduced MIP has 1080 binaries, 0 generals, 0 SOSs, and 0 indicators.
Presolve time = 0.00 sec. (2.39 ticks)
Represolve time = 0.06 sec. (47.08 ticks)
  11815     0  -1.30900e+13   247  -1.30900e+13      Cuts: 36   479083    0.00%
  11815     0  -1.30900e+13   285  -1.30900e+13      Cuts: 41   479174    0.00%
  11815     0  -1.30900e+13   251  -1.30900e+13      Cuts: 24   479267    0.00%
  11815     0  -1.30900e+13   283  -1.30900e+13      Cuts: 34   479344    0.00%
  11815     0  -1.30900e+13   295  -1.30900e+13      Cuts: 14   479387    0.00%
  11815     0  -1.30900e+13   291  -1.30900e+13      Cuts: 20   479428    0.00%
  11815     0  -1.30900e+13   265  -1.30900e+13      Cuts: 18   479505    0.00%
  11815     0  -1.30900e+13   288  -1.30900e+13      Cuts: 19   479559    0.00%
  11815     0  -1.30900e+13   311  -1.30900e+13      Cuts: 16   479620    0.00%
  11815     0  -1.30900e+13   302  -1.30900e+13      Cuts: 13   479665    0.00%
  11815     0  -1.30900e+13   291  -1.30900e+13      Cuts: 17   479707    0.00%
  11815     0  -1.30900e+13   312  -1.30900e+13      Cuts: 15   479761    0.00%
  11815     0  -1.30900e+13   278  -1.30900e+13      Cuts: 18   479837    0.00%
  11815     0  -1.30900e+13   340  -1.30900e+13      Cuts: 22   479899    0.00%
  11815     0  -1.30900e+13   332  -1.30900e+13      Cuts: 16   479989    0.00%
  11815     0  -1.30900e+13   332  -1.30900e+13      Cuts: 15   480058    0.00%
  11815     0        cutoff        -1.30900e+13  -1.30900e+13   480058    0.00%
Elapsed time = 8.10 sec. (6619.83 ticks, tree = 0.01 MB, solutions = 7)

GUB cover cuts applied:  2
Clique cuts applied:  31
Cover cuts applied:  139
Flow cuts applied:  9
Mixed integer rounding cuts applied:  15
Zero-half cuts applied:  40
Lift and project cuts applied:  1
Gomory fractional cuts applied:  7

Root node processing (before b&c):
  Real time             =    1.93 sec. (1631.22 ticks)
Parallel b&c, 40 threads:
  Real time             =    6.18 sec. (4989.42 ticks)
  Sync time (average)   =    0.52 sec.
  Wait time (average)   =    0.00 sec.
                          ------------
Total (root+branch&cut) =    8.10 sec. (6620.64 ticks)

Solution pool: 7 solutions saved.

MIP - Integer optimal solution:  Objective = -1.3089999690e+13
Solution time =    8.21 sec.  Iterations = 480058  Nodes = 11815
Deterministic time = 6620.67 ticks  (806.65 ticks/sec)

CPLEX> Solution 'p8' written to file 'ee.sol'.
CPLEX> 